example-data/example.tsp
NAME: example.tsp
TYPE: TSP
COMMENT: 6 New England capitals
DIMENSION: 6
EDGE_WEIGHT_TYPE: EXPLICIT
EDGE_WEIGHT_FORMAT: LOWER_DIAG_ROW 
EDGE_WEIGHT_SECTION
0 
229 0 
93 149 0
115 116 63 0
65 190 41 95 0
173 138 152 90 178 0
EOF