example-data/example.out
    githubname, BASIC, 4.321 (seconds), 596, example.tsp, notes
    1
    5 
    3 
    4
    2
    6 
    1 
    -1